100
32
20
11
26
20
18
8
16
9
17
32
28
3
12
11
8
9
10
7
13
16
5
2
5
1
4
3
1
1
1
18
3
1
1
2
2
6
1
20
3
3
3
1
1
3
1
1
1
1
2
18
2
2
18
1
1
18
4
1
2
1
1
6
8
2
17
2
1
1
2
4
2
3
21
4
2
3
1
22
2
1
1
4
2
1
3
17
1
2
1
1
4
21
6
1
17
15
2
1
2
1